Set parameter TokenServer to value "hpc-licenses.hpcc.usc.edu"
Set parameter TimeLimit to value 3600
Gurobi Optimizer version 9.5.1 build v9.5.1rc2 (linux64)
Thread count: 20 physical cores, 20 logical processors, using up to 20 threads
Optimize a model with 6007 rows, 4529 columns and 24534 nonzeros
Model fingerprint: 0xf8964cc6
Variable types: 4506 continuous, 23 integer (23 binary)
Coefficient statistics:
  Matrix range     [1e+00, 1e+00]
  Objective range  [3e-03, 1e+00]
  Bounds range     [1e+00, 1e+00]
  RHS range        [1e+00, 8e+01]
Presolve removed 1520 rows and 1515 columns
Presolve time: 0.06s
Presolved: 4487 rows, 3014 columns, 21975 nonzeros
Variable types: 2994 continuous, 20 integer (20 binary)
Found heuristic solution: objective 222.0887289

Root relaxation: objective 2.292121e+02, 3059 iterations, 0.11 seconds (0.15 work units)

    Nodes    |    Current Node    |     Objective Bounds      |     Work
 Expl Unexpl |  Obj  Depth IntInf | Incumbent    BestBd   Gap | It/Node Time

     0     0  229.21212    0    2  222.08873  229.21212  3.21%     -    0s
     0     0  229.12239    0    5  222.08873  229.12239  3.17%     -    0s
     0     0  229.11198    0    5  222.08873  229.11198  3.16%     -    0s
H    0     0                     227.6103664  229.11198  0.66%     -    0s
     0     0  229.10748    0    5  227.61037  229.10748  0.66%     -    0s
     0     0  229.10748    0    2  227.61037  229.10748  0.66%     -    0s
     0     0  229.10748    0    5  227.61037  229.10748  0.66%     -    1s
     0     0  229.10130    0    5  227.61037  229.10130  0.66%     -    1s
     0     0  228.95516    0    5  227.61037  228.95516  0.59%     -    1s
     0     0  228.95516    0    5  227.61037  228.95516  0.59%     -    1s
     0     2  228.95516    0    5  227.61037  228.95516  0.59%     -    2s
*   20     0              10     228.3773135  228.37731  0.00%   138    3s

Cutting planes:
  Gomory: 3
  MIR: 543
  RLT: 4

Explored 21 nodes (7952 simplex iterations) in 3.46 seconds (1.70 work units)
Thread count was 20 (of 20 available processors)

Solution count 3: 228.377 227.61 222.089 

Optimal solution found (tolerance 1.00e-04)
Best objective 2.283773134858e+02, best bound 2.283773134858e+02, gap 0.0000%



#########node  1
V1.8
#########node  2
0.2727272727272727,0.7272727272727273
#########node  3
1.0,0.0


Total Solving Time 3.852639675140381
obj value 228.37731348575267
Policy Regret train (Sum) 6.574261261987341
Best Treatment Found train (%) 61.8
treatment classification acc train (%) 37.6
Policy Regret test (Sum) 108.72835269107836
Best Treatment Found test (%) 63.12
treatment classification acc test (%) 39.32
